WARNING: for repeatability, setting FPU to use double precision
============================[ Problem Statistics ]=============================
|                                                                             |
|  Number of variables:           100                                         |
|  Number of clauses:             449                                         |
|  Parse time:                   0.00 s                                       |
|  Eliminated clauses:           0.00 Mb                                      |
|  Simplification time:          0.00 s                                       |
|                                                                             |
============================[ Search Statistics ]==============================
| Conflicts |          ORIGINAL         |          LEARNT          | Progress |
|           |    Vars  Clauses Literals |    Limit  Clauses Lit/Cl |          |
===============================================================================
|       100 |      98      445     1343 |      163      100      7 |  0.010 % |
===============================================================================
restarts              : 3
conflicts             : 244            (66107 /sec)
decisions             : 303            (0.00 % random) (82092 /sec)
propagations          : 5767           (1562449 /sec)
conflict literals     : 1738           (18.86 % deleted)
Memory used           : 13.00 MB
CPU time              : 0.003691 s

SATISFIABLE
